rcpsp/heur_output_or_constraints/Log=1/heurj120.txt
encoding rcpsp/j120.sm/j12028_2.sm nv: 2135868 nc: 4486443 enctime: 59.56
encoding rcpsp/j120.sm/j12028_2.sm nv: 340830 nc: 712218 enctime: 5.64
c File: j12028_2.smnaiveor1.wcnf
c timeout
c final solution cost: 336
c CPU time: 71.223857
s UNKNOWN

c File: j12028_2.smor1.wcnf
c timeout
c final solution cost: 94
c CPU time: 60.719205
s UNKNOWN


rcpsp/heur_output_or_constraints/Log=1/heurj120.txt
encoding rcpsp/j120.sm/j12028_3.sm nv: 2172105 nc: 4510641 enctime: 61.58
encoding rcpsp/j120.sm/j12028_3.sm nv: 323505 nc: 668361 enctime: 4.58
c File: j12028_3.smnaiveor1.wcnf
c timeout
c final solution cost: 85
c CPU time: 68.632643
s UNKNOWN

c File: j12028_3.smor1.wcnf
c timeout
c final solution cost: 84
c CPU time: 60.724963
s UNKNOWN


rcpsp/heur_output_or_constraints/Log=1/heurj120.txt
encoding rcpsp/j120.sm/j12028_4.sm nv: 2159992 nc: 4543197 enctime: 64.64
encoding rcpsp/j120.sm/j12028_4.sm nv: 364336 nc: 762549 enctime: 6.97
c File: j12028_4.smnaiveor1.wcnf
c timeout
c final solution cost: 227
c CPU time: 70.488425
s UNKNOWN

c File: j12028_4.smor1.wcnf
c timeout
c final solution cost: 102
c CPU time: 60.719386
s UNKNOWN


rcpsp/heur_output_or_constraints/Log=1/heurj120.txt
encoding rcpsp/j120.sm/j12028_5.sm nv: 2121756 nc: 4407225 enctime: 57.74
encoding rcpsp/j120.sm/j12028_5.sm nv: 310076 nc: 640865 enctime: 6.01
c File: j12028_5.smnaiveor1.wcnf
c timeout
c final solution cost: 81
c CPU time: 69.364002
s UNKNOWN

c File: j12028_5.smor1.wcnf
c timeout
c final solution cost: 83
c CPU time: 60.740152
s UNKNOWN


rcpsp/heur_output_or_constraints/Log=1/heurj120.txt
encoding rcpsp/j120.sm/j12028_6.sm nv: 2169112 nc: 4519449 enctime: 63.27
encoding rcpsp/j120.sm/j12028_6.sm nv: 352308 nc: 730671 enctime: 5.81
c File: j12028_6.smnaiveor1.wcnf
c timeout
c CPU time: 68.261988
s UNKNOWN

c File: j12028_6.smor1.wcnf
c timeout
c CPU time: 60.556123
s UNKNOWN


rcpsp/heur_output_or_constraints/Log=1/heurj120.txt
encoding rcpsp/j120.sm/j12028_7.sm nv: 2357520 nc: 4973602 enctime: 75.94
encoding rcpsp/j120.sm/j12028_7.sm nv: 351120 nc: 736402 enctime: 7.04
c File: j12028_7.smnaiveor1.wcnf
c timeout
c final solution cost: 97
c CPU time: 70.652440
s UNKNOWN

c File: j12028_7.smor1.wcnf
c timeout
c final solution cost: 98
c CPU time: 60.678628
s UNKNOWN


rcpsp/heur_output_or_constraints/Log=1/heurj120.txt
encoding rcpsp/j120.sm/j12028_8.sm nv: 2146709 nc: 4489747 enctime: 55.01
encoding rcpsp/j120.sm/j12028_8.sm nv: 351645 nc: 731851 enctime: 3.65
c File: j12028_8.smnaiveor1.wcnf
c timeout
c final solution cost: 94
c CPU time: 69.451249
s UNKNOWN

c File: j12028_8.smor1.wcnf
c timeout
c final solution cost: 94
c CPU time: 60.737868
s UNKNOWN


rcpsp/heur_output_or_constraints/Log=1/heurj120.txt
encoding rcpsp/j120.sm/j12028_9.sm nv: 2163420 nc: 4488267 enctime: 54.83
encoding rcpsp/j120.sm/j12028_9.sm nv: 328440 nc: 677985 enctime: 3.74
c File: j12028_9.smnaiveor1.wcnf
c timeout
c final solution cost: 83
c CPU time: 68.802387
s UNKNOWN

c File: j12028_9.smor1.wcnf
c timeout
c final solution cost: 82
c CPU time: 60.567616
s UNKNOWN


rcpsp/heur_output_or_constraints/Log=1/heurj120.txt
encoding rcpsp/j120.sm/j1202_8.sm nv: 701100 nc: 1595030 enctime: 31.79
encoding rcpsp/j120.sm/j1202_8.sm nv: 100320 nc: 224830 enctime: 2.76
c File: j1202_8.smnaiveor1.wcnf
c timeout
c final solution cost: 70
c CPU time: 65.981190
s UNKNOWN

c File: j1202_8.smor1.wcnf
c timeout
c final solution cost: 70
c CPU time: 60.222462
s UNKNOWN


rcpsp/heur_output_or_constraints/Log=1/heurj120.txt
encoding rcpsp/j120.sm/j12029_10.sm nv: 2481516 nc: 5129128 enctime: 67.00
encoding rcpsp/j120.sm/j12029_10.sm nv: 319680 nc: 657222 enctime: 6.27
c File: j12029_10.smnaiveor1.wcnf
c timeout
c final solution cost: 72
c CPU time: 69.897341
s UNKNOWN

c File: j12029_10.smor1.wcnf
c timeout
c final solution cost: 72
c CPU time: 60.608752
s UNKNOWN


rcpsp/heur_output_or_constraints/Log=1/heurj120.txt
encoding rcpsp/j120.sm/j12029_1.sm nv: 3041346 nc: 6298690 enctime: 86.17
encoding rcpsp/j120.sm/j12029_1.sm nv: 366212 nc: 754346 enctime: 5.95
c File: j12029_1.smnaiveor1.wcnf
c timeout
c final solution cost: 132
c CPU time: 71.381208
s UNKNOWN

c File: j12029_1.smor1.wcnf
c timeout
c final solution cost: 73
c CPU time: 60.712330
s UNKNOWN


rcpsp/heur_output_or_constraints/Log=1/heurj120.txt
encoding rcpsp/j120.sm/j12029_2.sm nv: 3009162 nc: 6219802 enctime: 83.85
encoding rcpsp/j120.sm/j12029_2.sm nv: 328354 nc: 674618 enctime: 3.40
c File: j12029_2.smnaiveor1.wcnf
c timeout
c final solution cost: 181
c CPU time: 71.855537
s UNKNOWN

c File: j12029_2.smor1.wcnf
c timeout
c final solution cost: 69
c CPU time: 60.534308
s UNKNOWN


rcpsp/heur_output_or_constraints/Log=1/heurj120.txt
encoding rcpsp/j120.sm/j12029_3.sm nv: 3089744 nc: 6396185 enctime: 74.36
encoding rcpsp/j120.sm/j12029_3.sm nv: 432384 nc: 890895 enctime: 4.94
c File: j12029_3.smnaiveor1.wcnf
c timeout
c final solution cost: 90
c CPU time: 71.534744
s UNKNOWN

c File: j12029_3.smor1.wcnf
c timeout
c final solution cost: 90
c CPU time: 60.767797
s UNKNOWN


rcpsp/heur_output_or_constraints/Log=1/heurj120.txt
encoding rcpsp/j120.sm/j12029_4.sm nv: 2862099 nc: 5908539 enctime: 75.84
encoding rcpsp/j120.sm/j12029_4.sm nv: 306810 nc: 629474 enctime: 5.44
c File: j12029_4.smnaiveor1.wcnf
c timeout
c final solution cost: 66
c CPU time: 70.540820
s UNKNOWN

c File: j12029_4.smor1.wcnf
c timeout
c final solution cost: 65
c CPU time: 60.503873
s UNKNOWN


rcpsp/heur_output_or_constraints/Log=1/heurj120.txt
encoding rcpsp/j120.sm/j12029_5.sm nv: 2843970 nc: 5934092 enctime: 71.55
encoding rcpsp/j120.sm/j12029_5.sm nv: 367094 nc: 761756 enctime: 6.36
c File: j12029_5.smnaiveor1.wcnf
c timeout
c final solution cost: 256
c CPU time: 72.454246
s UNKNOWN

c File: j12029_5.smor1.wcnf
c timeout
c final solution cost: 83
c CPU time: 60.618711
s UNKNOWN


rcpsp/heur_output_or_constraints/Log=1/heurj120.txt
encoding rcpsp/j120.sm/j12029_6.sm nv: 2470952 nc: 5137328 enctime: 72.89
encoding rcpsp/j120.sm/j12029_6.sm nv: 329208 nc: 680644 enctime: 6.55
c File: j12029_6.smnaiveor1.wcnf
c timeout
c final solution cost: 98
c CPU time: 70.677080
s UNKNOWN

c File: j12029_6.smor1.wcnf
c timeout
c final solution cost: 82
c CPU time: 60.714197
s UNKNOWN


rcpsp/heur_output_or_constraints/Log=1/heurj120.txt
encoding rcpsp/j120.sm/j12029_7.sm nv: 2983372 nc: 6162289 enctime: 75.60
encoding rcpsp/j120.sm/j12029_7.sm nv: 362720 nc: 745273 enctime: 6.93
c File: j12029_7.smnaiveor1.wcnf
c timeout
c final solution cost: 76
c CPU time: 71.071781
s UNKNOWN

c File: j12029_7.smor1.wcnf
c timeout
c final solution cost: 75
c CPU time: 60.671491
s UNKNOWN


rcpsp/heur_output_or_constraints/Log=1/heurj120.txt
encoding rcpsp/j120.sm/j12029_8.sm nv: 2739390 nc: 5654219 enctime: 65.80
encoding rcpsp/j120.sm/j12029_8.sm nv: 336492 nc: 690792 enctime: 6.80
c File: j12029_8.smnaiveor1.wcnf
c timeout
c final solution cost: 70
c CPU time: 69.890663
s UNKNOWN

c File: j12029_8.smor1.wcnf
c timeout
c final solution cost: 73
c CPU time: 60.681400
s UNKNOWN


rcpsp/heur_output_or_constraints/Log=1/heurj120.txt
encoding rcpsp/j120.sm/j12029_9.sm nv: 2539138 nc: 5240142 enctime: 66.26
encoding rcpsp/j120.sm/j12029_9.sm nv: 307650 nc: 631374 enctime: 4.40
c File: j12029_9.smnaiveor1.wcnf
c timeout
c final solution cost: 71
c CPU time: 69.975263
s UNKNOWN

c File: j12029_9.smor1.wcnf
c timeout
c final solution cost: 72
c CPU time: 60.666940
s UNKNOWN


rcpsp/heur_output_or_constraints/Log=1/heurj120.txt
encoding rcpsp/j120.sm/j1202_9.sm nv: 693753 nc: 1635103 enctime: 32.77
encoding rcpsp/j120.sm/j1202_9.sm nv: 102663 nc: 238033 enctime: 2.01
c File: j1202_9.smnaiveor1.wcnf
c timeout
c final solution cost: 81
c CPU time: 66.513477
s UNKNOWN

c File: j1202_9.smor1.wcnf
c timeout
c final solution cost: 81
c CPU time: 60.254737
s UNKNOWN


rcpsp/heur_output_or_constraints/Log=1/heurj120.txt
encoding rcpsp/j120.sm/j12030_10.sm nv: 3247596 nc: 6667965 enctime: 69.66
encoding rcpsp/j120.sm/j12030_10.sm nv: 360288 nc: 735828 enctime: 3.71
c File: j12030_10.smnaiveor1.wcnf
c timeout
c final solution cost: 63
c CPU time: 70.420461
s UNKNOWN

c File: j12030_10.smor1.wcnf
c timeout
c final solution cost: 63
c CPU time: 60.637734
s UNKNOWN


rcpsp/heur_output_or_constraints/Log=1/heurj120.txt
encoding rcpsp/j120.sm/j12030_1.sm nv: 2926040 nc: 6047357 enctime: 80.30
encoding rcpsp/j120.sm/j12030_1.sm nv: 335920 nc: 690145 enctime: 3.57
c File: j12030_1.smnaiveor1.wcnf
c timeout
c final solution cost: 71
c CPU time: 72.558537
s UNKNOWN

c File: j12030_1.smor1.wcnf
c timeout
c final solution cost: 73
c CPU time: 60.762576
s UNKNOWN


rcpsp/heur_output_or_constraints/Log=1/heurj120.txt
encoding rcpsp/j120.sm/j12030_2.sm nv: 2780364 nc: 5774759 enctime: 79.86
encoding rcpsp/j120.sm/j12030_2.sm nv: 353260 nc: 729583 enctime: 3.91
c File: j12030_2.smnaiveor1.wcnf
c timeout
c final solution cost: 75
c CPU time: 70.642566
s UNKNOWN

c File: j12030_2.smor1.wcnf
c timeout
c final solution cost: 74
c CPU time: 60.730213
s UNKNOWN


rcpsp/heur_output_or_constraints/Log=1/heurj120.txt
encoding rcpsp/j120.sm/j12030_3.sm nv: 3128400 nc: 6450347 enctime: 84.24
encoding rcpsp/j120.sm/j12030_3.sm nv: 402900 nc: 826847 enctime: 7.18
c File: j12030_3.smnaiveor1.wcnf
c timeout
c final solution cost: 78
c CPU time: 71.207004
s UNKNOWN

c File: j12030_3.smor1.wcnf
c timeout
c final solution cost: 77
c CPU time: 60.766421
s UNKNOWN


rcpsp/heur_output_or_constraints/Log=1/heurj120.txt
encoding rcpsp/j120.sm/j12030_4.sm nv: 2969890 nc: 6132757 enctime: 85.98
encoding rcpsp/j120.sm/j12030_4.sm nv: 317086 nc: 650731 enctime: 3.51
c File: j12030_4.smnaiveor1.wcnf
c timeout
c final solution cost: 183
c CPU time: 72.437451
s UNKNOWN

c File: j12030_4.smor1.wcnf
c timeout
c final solution cost: 65
c CPU time: 60.632000
s UNKNOWN


rcpsp/heur_output_or_constraints/Log=1/heurj120.txt
encoding rcpsp/j120.sm/j12030_5.sm nv: 2667720 nc: 5531599 enctime: 77.17
encoding rcpsp/j120.sm/j12030_5.sm nv: 343570 nc: 708499 enctime: 6.45
c File: j12030_5.smnaiveor1.wcnf
c timeout
c final solution cost: 79
c CPU time: 71.015969
s UNKNOWN

c File: j12030_5.smor1.wcnf
c timeout
c final solution cost: 81
c CPU time: 60.682045
s UNKNOWN


rcpsp/heur_output_or_constraints/Log=1/heurj120.txt
encoding rcpsp/j120.sm/j12030_6.sm nv: 3376684 nc: 6908891 enctime: 90.33
encoding rcpsp/j120.sm/j12030_6.sm nv: 383472 nc: 780843 enctime: 6.84
c File: j12030_6.smnaiveor1.wcnf
c timeout
c final solution cost: 61
c CPU time: 71.610883
s UNKNOWN

c File: j12030_6.smor1.wcnf
c timeout
c final solution cost: 61
c CPU time: 60.734115
s UNKNOWN


rcpsp/heur_output_or_constraints/Log=1/heurj120.txt
encoding rcpsp/j120.sm/j12030_7.sm nv: 3381754 nc: 6982646 enctime: 97.43
encoding rcpsp/j120.sm/j12030_7.sm nv: 420884 nc: 864886 enctime: 7.31
c File: j12030_7.smnaiveor1.wcnf
c timeout
c final solution cost: 86
c CPU time: 73.101112
s UNKNOWN

c File: j12030_7.smor1.wcnf
c timeout
c CPU time: 60.740611
s UNKNOWN


rcpsp/heur_output_or_constraints/Log=1/heurj120.txt
encoding rcpsp/j120.sm/j12030_8.sm nv: 4201516 nc: 8601007 enctime: 112.18
encoding rcpsp/j120.sm/j12030_8.sm nv: 391820 nc: 797703 enctime: 4.39
c File: j12030_8.smnaiveor1.wcnf
c timeout
c final solution cost: 59
c CPU time: 74.191179
s UNKNOWN

c File: j12030_8.smor1.wcnf
c timeout
c final solution cost: 58
c CPU time: 60.762710
s UNKNOWN


rcpsp/heur_output_or_constraints/Log=1/heurj120.txt
encoding rcpsp/j120.sm/j12030_9.sm nv: 3190956 nc: 6619041 enctime: 96.78
encoding rcpsp/j120.sm/j12030_9.sm nv: 360560 nc: 743473 enctime: 6.85
c File: j12030_9.smnaiveor1.wcnf
c timeout
c final solution cost: 74
c CPU time: 72.938547
s UNKNOWN

c File: j12030_9.smor1.wcnf
c timeout
c final solution cost: 73
c CPU time: 60.724313
s UNKNOWN


rcpsp/heur_output_or_constraints/Log=1/heurj120.txt
encoding rcpsp/j120.sm/j1203_10.sm nv: 830417 nc: 1910162 enctime: 43.13
encoding rcpsp/j120.sm/j1203_10.sm nv: 90502 nc: 204062 enctime: 1.01
c File: j1203_10.smnaiveor1.wcnf
c timeout
c final solution cost: 206
c CPU time: 67.427774
s UNKNOWN

c File: j1203_10.smor1.wcnf
c optimal
c final solution cost: 65
c CPU time: 47.045785
s OPTIMUM FOUND


rcpsp/heur_output_or_constraints/Log=1/heurj120.txt
encoding rcpsp/j120.sm/j12031_10.sm nv: 2220288 nc: 4686637 enctime: 68.23
encoding rcpsp/j120.sm/j12031_10.sm nv: 868952 nc: 1831408 enctime: 15.90
c File: j12031_10.smnaiveor1.wcnf
c timeout
c final solution cost: 242
c CPU time: 71.110712
s UNKNOWN

c File: j12031_10.smor1.wcnf
c timeout
c final solution cost: 255
c CPU time: 62.374092
s UNKNOWN


rcpsp/heur_output_or_constraints/Log=1/heurj120.txt
encoding rcpsp/j120.sm/j12031_1.sm nv: 2337480 nc: 4891344 enctime: 70.26
encoding rcpsp/j120.sm/j12031_1.sm nv: 753792 nc: 1574514 enctime: 13.82
c File: j12031_1.smnaiveor1.wcnf
c timeout
c final solution cost: 225
c CPU time: 70.784547
s UNKNOWN

c File: j12031_1.smor1.wcnf
c timeout
c CPU time: 61.823051
s UNKNOWN


rcpsp/heur_output_or_constraints/Log=1/heurj120.txt
encoding rcpsp/j120.sm/j12031_2.sm nv: 2308225 nc: 4820422 enctime: 66.00
encoding rcpsp/j120.sm/j12031_2.sm nv: 817875 nc: 1705242 enctime: 13.21
c File: j12031_2.smnaiveor1.wcnf
c timeout
c final solution cost: 322
c CPU time: 70.604105
s UNKNOWN

c File: j12031_2.smor1.wcnf
c timeout
c final solution cost: 204
c CPU time: 62.207224
s UNKNOWN


rcpsp/heur_output_or_constraints/Log=1/heurj120.txt
encoding rcpsp/j120.sm/j12031_3.sm nv: 2503177 nc: 5206758 enctime: 74.57
encoding rcpsp/j120.sm/j12031_3.sm nv: 777532 nc: 1614528 enctime: 12.34
c File: j12031_3.smnaiveor1.wcnf
c timeout
c final solution cost: 251
c CPU time: 70.647501
s UNKNOWN

c File: j12031_3.smor1.wcnf
c timeout
c final solution cost: 179
c CPU time: 61.825554
s UNKNOWN


rcpsp/heur_output_or_constraints/Log=1/heurj120.txt
encoding rcpsp/j120.sm/j12031_4.sm nv: 2065206 nc: 4343145 enctime: 66.45
encoding rcpsp/j120.sm/j12031_4.sm nv: 757458 nc: 1590289 enctime: 14.95
c File: j12031_4.smnaiveor1.wcnf
c timeout
c final solution cost: 330
c CPU time: 70.130929
s UNKNOWN

c File: j12031_4.smor1.wcnf
c timeout
c CPU time: 61.663417
s UNKNOWN


rcpsp/heur_output_or_constraints/Log=1/heurj120.txt
encoding rcpsp/j120.sm/j12031_5.sm nv: 2631683 nc: 5549875 enctime: 84.94
encoding rcpsp/j120.sm/j12031_5.sm nv: 800947 nc: 1685539 enctime: 14.65
c File: j12031_5.smnaiveor1.wcnf
c timeout
c final solution cost: 324
c CPU time: 73.134054
s UNKNOWN

c File: j12031_5.smor1.wcnf
c timeout
c CPU time: 61.921726
s UNKNOWN


rcpsp/heur_output_or_constraints/Log=1/heurj120.txt
encoding rcpsp/j120.sm/j12031_6.sm nv: 2599740 nc: 5425291 enctime: 75.57
encoding rcpsp/j120.sm/j12031_6.sm nv: 811434 nc: 1690233 enctime: 14.83
c File: j12031_6.smnaiveor1.wcnf
c timeout
c final solution cost: 292
c CPU time: 70.899434
s UNKNOWN

c File: j12031_6.smor1.wcnf
c timeout
c CPU time: 61.790070
s UNKNOWN


rcpsp/heur_output_or_constraints/Log=1/heurj120.txt
encoding rcpsp/j120.sm/j12031_7.sm nv: 2688014 nc: 5654491 enctime: 87.40
encoding rcpsp/j120.sm/j12031_7.sm nv: 828836 nc: 1740046 enctime: 14.51
c File: j12031_7.smnaiveor1.wcnf
c timeout
c final solution cost: 352
c CPU time: 73.027457
s UNKNOWN

c File: j12031_7.smor1.wcnf
c timeout
c CPU time: 61.882322
s UNKNOWN


rcpsp/heur_output_or_constraints/Log=1/heurj120.txt
encoding rcpsp/j120.sm/j12031_8.sm nv: 2632019 nc: 5525083 enctime: 85.43
encoding rcpsp/j120.sm/j12031_8.sm nv: 815126 nc: 1707652 enctime: 16.89
c File: j12031_8.smnaiveor1.wcnf
c timeout
c final solution cost: 280
c CPU time: 72.577665
s UNKNOWN

c File: j12031_8.smor1.wcnf
c timeout
c CPU time: 61.769721
s UNKNOWN


